p td 22 108
2 1
3 1
4 3
5 3
5 1
5 4
6 5
6 1
7 4
8 2
8 5
8 1
9 1
9 7
9 4
9 6
10 7
10 4
10 3
10 8
11 1
11 2
11 9
11 3
12 5
12 8
12 6
13 11
13 3
13 5
13 1
13 10
13 8
14 5
14 3
14 4
14 7
14 6
15 1
15 14
15 11
15 5
15 7
15 2
15 10
15 6
16 6
16 3
16 12
16 10
16 14
16 1
16 7
16 11
16 15
17 3
17 11
17 8
17 6
17 15
17 2
18 3
18 8
18 7
18 11
18 9
18 5
18 1
19 11
19 15
19 1
19 14
19 18
19 17
19 12
20 19
20 7
20 13
20 5
20 18
20 8
20 16
20 15
20 2
20 14
21 19
21 20
21 10
21 18
21 15
21 13
21 9
21 12
22 19
22 16
22 8
22 21
22 6
22 10
22 2
22 15
22 18
22 5
22 20
22 7
22 14
22 1
22 11
